eval/18-encs/equiv_enc_437.smt2
; SWAP3 SHA3 SWAP2 SWAP1 SWAP2 => SWAP2 SWAP3 SHA3
(set-option :produce-proofs true)
; 
(set-info :status unknown)
(declare-fun storage_t ((_ BitVec 256) (_ BitVec 256) (_ BitVec 256) (_ BitVec 256) (_ BitVec 256) Int (_ BitVec 256)) (_ BitVec 256))
(declare-fun storage_s ((_ BitVec 256) (_ BitVec 256) (_ BitVec 256) (_ BitVec 256) (_ BitVec 256) Int (_ BitVec 256)) (_ BitVec 256))
(declare-fun exc_halt_t (Int) Bool)
(declare-fun exc_halt_s (Int) Bool)
(declare-fun stack_t ((_ BitVec 256) (_ BitVec 256) (_ BitVec 256) (_ BitVec 256) (_ BitVec 256) Int (_ BitVec 6)) (_ BitVec 256))
(declare-fun stack_s ((_ BitVec 256) (_ BitVec 256) (_ BitVec 256) (_ BitVec 256) (_ BitVec 256) Int (_ BitVec 6)) (_ BitVec 256))
(declare-fun sc_t (Int) (_ BitVec 6))
(declare-fun sc_s (Int) (_ BitVec 6))
(declare-fun used_gas_t ((_ BitVec 256) (_ BitVec 256) (_ BitVec 256) (_ BitVec 256) (_ BitVec 256) Int) Int)
(declare-fun used_gas_s ((_ BitVec 256) (_ BitVec 256) (_ BitVec 256) (_ BitVec 256) (_ BitVec 256) Int) Int)
(declare-fun f_SHA3 ((_ BitVec 256) (_ BitVec 256) (_ BitVec 256) (_ BitVec 256) (_ BitVec 256) (_ BitVec 256) (_ BitVec 256)) (_ BitVec 256))
(assert
 (exists ((x_0 (_ BitVec 256)) (x_1 (_ BitVec 256)) (x_2 (_ BitVec 256)) (x_3 (_ BitVec 256)) (x_SHA3_0 (_ BitVec 256)) )(let (($x8717 (forall ((w (_ BitVec 256)) )(let ((?x3460 (storage_t x_0 x_1 x_2 x_3 x_SHA3_0 3 w)))
 (let ((?x5784 (storage_s x_0 x_1 x_2 x_3 x_SHA3_0 5 w)))
 (= ?x5784 ?x3460))))
 ))
 (let (($x6783 (exc_halt_t 3)))
 (let (($x11317 (exc_halt_s 5)))
 (let (($x11613 (= $x11317 $x6783)))
 (let (($x9833 (forall ((n (_ BitVec 6)) )(let ((?x9578 (stack_t x_0 x_1 x_2 x_3 x_SHA3_0 3 n)))
 (let ((?x4504 (stack_s x_0 x_1 x_2 x_3 x_SHA3_0 5 n)))
 (let (($x8549 (= ?x4504 ?x9578)))
 (or (bvsle (sc_t 3) n) $x8549)))))
 ))
 (let ((?x6438 (sc_t 3)))
 (let ((?x4319 (sc_s 5)))
 (let (($x7281 (= ?x4319 ?x6438)))
 (let ((?x5518 (used_gas_t x_0 x_1 x_2 x_3 x_SHA3_0 0)))
 (let ((?x3793 (used_gas_s x_0 x_1 x_2 x_3 x_SHA3_0 0)))
 (let (($x1439 (= ?x3793 ?x5518)))
 (let (($x1366 (forall ((w (_ BitVec 256)) )(let ((?x11781 (storage_t x_0 x_1 x_2 x_3 x_SHA3_0 0 w)))
 (let ((?x4974 (storage_s x_0 x_1 x_2 x_3 x_SHA3_0 0 w)))
 (= ?x4974 ?x11781))))
 ))
 (let (($x56 (exc_halt_t 0)))
 (let (($x57 (exc_halt_s 0)))
 (let (($x58 (= $x57 $x56)))
 (let (($x8277 (forall ((n (_ BitVec 6)) )(let ((?x11194 (stack_t x_0 x_1 x_2 x_3 x_SHA3_0 0 n)))
 (let ((?x3727 (stack_s x_0 x_1 x_2 x_3 x_SHA3_0 0 n)))
 (let (($x7054 (= ?x3727 ?x11194)))
 (or $x7054 (bvsle (sc_t 0) n))))))
 ))
 (let ((?x63 (sc_t 0)))
 (let ((?x72 (sc_s 0)))
 (let (($x73 (= ?x72 ?x63)))
 (let (($x10012 (= $x6783 (or (exc_halt_t 2) (not (bvsle (_ bv0 6) (bvadd (_ bv62 6) (sc_t 2))))))))
 (let (($x5867 (forall ((w (_ BitVec 256)) )(let ((?x9110 (storage_t x_0 x_1 x_2 x_3 x_SHA3_0 2 w)))
 (let ((?x3460 (storage_t x_0 x_1 x_2 x_3 x_SHA3_0 3 w)))
 (= ?x3460 ?x9110))))
 ))
 (let (($x8282 (forall ((n (_ BitVec 6)) )(let ((?x9058 (stack_t x_0 x_1 x_2 x_3 x_SHA3_0 2 n)))
 (let ((?x9578 (stack_t x_0 x_1 x_2 x_3 x_SHA3_0 3 n)))
 (or (bvsle (bvadd (_ bv62 6) (sc_t 2)) n) (= ?x9578 ?x9058)))))
 ))
 (let (($x3792 (= (used_gas_t x_0 x_1 x_2 x_3 x_SHA3_0 3) (+ 30 (used_gas_t x_0 x_1 x_2 x_3 x_SHA3_0 2)))))
 (let ((?x2714 (sc_t 2)))
 (let ((?x5873 (bvadd (_ bv62 6) ?x2714)))
 (let ((?x9396 (stack_t x_0 x_1 x_2 x_3 x_SHA3_0 2 ?x5873)))
 (let ((?x9423 (bvadd (_ bv63 6) ?x2714)))
 (let ((?x2394 (stack_t x_0 x_1 x_2 x_3 x_SHA3_0 2 ?x9423)))
 (let (($x8760 (= (stack_t x_0 x_1 x_2 x_3 x_SHA3_0 3 (bvadd (_ bv63 6) ?x6438)) (f_SHA3 x_0 x_1 x_2 x_3 x_SHA3_0 ?x2394 ?x9396))))
 (let (($x4835 (exc_halt_t 2)))
 (let (($x9681 (= $x4835 (or (exc_halt_t 1) (not (bvsle (_ bv0 6) (bvadd (_ bv60 6) (sc_t 1))))))))
 (let (($x4009 (forall ((w (_ BitVec 256)) )(let ((?x2433 (storage_t x_0 x_1 x_2 x_3 x_SHA3_0 1 w)))
 (let ((?x9110 (storage_t x_0 x_1 x_2 x_3 x_SHA3_0 2 w)))
 (= ?x9110 ?x2433))))
 ))
 (let (($x10503 (forall ((n (_ BitVec 6)) )(let ((?x4536 (stack_t x_0 x_1 x_2 x_3 x_SHA3_0 1 n)))
 (let ((?x9058 (stack_t x_0 x_1 x_2 x_3 x_SHA3_0 2 n)))
 (or (bvsle (bvadd (_ bv60 6) (sc_t 1)) n) (= ?x9058 ?x4536)))))
 ))
 (let ((?x4493 (used_gas_t x_0 x_1 x_2 x_3 x_SHA3_0 2)))
 (let ((?x8449 (stack_t x_0 x_1 x_2 x_3 x_SHA3_0 1 (bvadd (_ bv62 6) (sc_t 1)))))
 (let ((?x7505 (stack_t x_0 x_1 x_2 x_3 x_SHA3_0 1 (bvadd (_ bv61 6) (sc_t 1)))))
 (let ((?x8601 (stack_t x_0 x_1 x_2 x_3 x_SHA3_0 1 (bvadd (_ bv63 6) (sc_t 1)))))
 (let (($x9813 (= ?x2394 (stack_t x_0 x_1 x_2 x_3 x_SHA3_0 1 (bvadd (_ bv60 6) (sc_t 1))))))
 (let (($x3482 (forall ((w (_ BitVec 256)) )(let ((?x11781 (storage_t x_0 x_1 x_2 x_3 x_SHA3_0 0 w)))
 (let ((?x2433 (storage_t x_0 x_1 x_2 x_3 x_SHA3_0 1 w)))
 (= ?x2433 ?x11781))))
 ))
 (let (($x5957 (forall ((n (_ BitVec 6)) )(let ((?x11194 (stack_t x_0 x_1 x_2 x_3 x_SHA3_0 0 n)))
 (let ((?x4536 (stack_t x_0 x_1 x_2 x_3 x_SHA3_0 1 n)))
 (or (bvsle (bvadd (_ bv61 6) (sc_t 0)) n) (= ?x4536 ?x11194)))))
 ))
 (let (($x5254 (= $x11317 (or (not (bvsle (_ bv0 6) (bvadd (_ bv61 6) (sc_s 4)))) (exc_halt_s 4)))))
 (let (($x1113 (forall ((w (_ BitVec 256)) )(let ((?x11561 (storage_s x_0 x_1 x_2 x_3 x_SHA3_0 4 w)))
 (let ((?x5784 (storage_s x_0 x_1 x_2 x_3 x_SHA3_0 5 w)))
 (= ?x5784 ?x11561))))
 ))
 (let (($x5264 (forall ((n (_ BitVec 6)) )(let ((?x11211 (stack_s x_0 x_1 x_2 x_3 x_SHA3_0 4 n)))
 (let ((?x4504 (stack_s x_0 x_1 x_2 x_3 x_SHA3_0 5 n)))
 (or (= ?x4504 ?x11211) (bvsle (bvadd (_ bv61 6) (sc_s 4)) n)))))
 ))
 (let (($x4196 (= (used_gas_s x_0 x_1 x_2 x_3 x_SHA3_0 5) (+ 3 (used_gas_s x_0 x_1 x_2 x_3 x_SHA3_0 4)))))
 (let ((?x4792 (stack_s x_0 x_1 x_2 x_3 x_SHA3_0 4 (bvadd (_ bv62 6) (sc_s 4)))))
 (let ((?x1568 (stack_s x_0 x_1 x_2 x_3 x_SHA3_0 4 (bvadd (_ bv63 6) (sc_s 4)))))
 (let (($x7219 (= (stack_s x_0 x_1 x_2 x_3 x_SHA3_0 5 (bvadd (_ bv63 6) ?x4319)) (stack_s x_0 x_1 x_2 x_3 x_SHA3_0 4 (bvadd (_ bv61 6) (sc_s 4))))))
 (let (($x7172 (exc_halt_s 4)))
 (let (($x7653 (= $x7172 (or (exc_halt_s 3) (not (bvsle (_ bv0 6) (bvadd (_ bv62 6) (sc_s 3))))))))
 (let (($x2922 (forall ((w (_ BitVec 256)) )(let ((?x2525 (storage_s x_0 x_1 x_2 x_3 x_SHA3_0 3 w)))
 (let ((?x11561 (storage_s x_0 x_1 x_2 x_3 x_SHA3_0 4 w)))
 (= ?x11561 ?x2525))))
 ))
 (let (($x994 (forall ((n (_ BitVec 6)) )(let ((?x2175 (stack_s x_0 x_1 x_2 x_3 x_SHA3_0 3 n)))
 (let ((?x11211 (stack_s x_0 x_1 x_2 x_3 x_SHA3_0 4 n)))
 (or (= ?x11211 ?x2175) (bvsle (bvadd (_ bv62 6) (sc_s 3)) n)))))
 ))
 (let ((?x2942 (used_gas_s x_0 x_1 x_2 x_3 x_SHA3_0 4)))
 (let ((?x3335 (stack_s x_0 x_1 x_2 x_3 x_SHA3_0 3 (bvadd (_ bv63 6) (sc_s 3)))))
 (let ((?x275 (sc_s 3)))
 (let ((?x2146 (bvadd (_ bv62 6) ?x275)))
 (let ((?x6780 (stack_s x_0 x_1 x_2 x_3 x_SHA3_0 3 ?x2146)))
 (let (($x292 (exc_halt_s 3)))
 (let (($x1524 (= $x292 (or (exc_halt_s 2) (not (bvsle (_ bv0 6) (bvadd (_ bv61 6) (sc_s 2))))))))
 (let (($x9311 (forall ((w (_ BitVec 256)) )(let ((?x1278 (storage_s x_0 x_1 x_2 x_3 x_SHA3_0 2 w)))
 (let ((?x2525 (storage_s x_0 x_1 x_2 x_3 x_SHA3_0 3 w)))
 (= ?x2525 ?x1278))))
 ))
 (let (($x4075 (forall ((n (_ BitVec 6)) )(let ((?x402 (stack_s x_0 x_1 x_2 x_3 x_SHA3_0 2 n)))
 (let ((?x2175 (stack_s x_0 x_1 x_2 x_3 x_SHA3_0 3 n)))
 (or (bvsle (bvadd (_ bv61 6) (sc_s 2)) n) (= ?x2175 ?x402)))))
 ))
 (let ((?x4400 (used_gas_s x_0 x_1 x_2 x_3 x_SHA3_0 3)))
 (let (($x10035 (= ?x6780 (stack_s x_0 x_1 x_2 x_3 x_SHA3_0 2 (bvadd (_ bv62 6) (sc_s 2))))))
 (let ((?x2395 (stack_s x_0 x_1 x_2 x_3 x_SHA3_0 2 (bvadd (_ bv63 6) (sc_s 2)))))
 (let (($x8958 (= ?x3335 (stack_s x_0 x_1 x_2 x_3 x_SHA3_0 2 (bvadd (_ bv61 6) (sc_s 2))))))
 (let (($x247 (exc_halt_s 2)))
 (let (($x6737 (= $x247 (or (exc_halt_s 1) (not (bvsle (_ bv0 6) (bvadd (_ bv62 6) (sc_s 1))))))))
 (let (($x9989 (forall ((w (_ BitVec 256)) )(let ((?x9226 (storage_s x_0 x_1 x_2 x_3 x_SHA3_0 1 w)))
 (let ((?x1278 (storage_s x_0 x_1 x_2 x_3 x_SHA3_0 2 w)))
 (= ?x1278 ?x9226))))
 ))
 (let (($x1427 (forall ((n (_ BitVec 6)) )(let ((?x1399 (stack_s x_0 x_1 x_2 x_3 x_SHA3_0 1 n)))
 (let ((?x402 (stack_s x_0 x_1 x_2 x_3 x_SHA3_0 2 n)))
 (or (= ?x402 ?x1399) (bvsle (bvadd (_ bv62 6) (sc_s 1)) n)))))
 ))
 (let ((?x1697 (used_gas_s x_0 x_1 x_2 x_3 x_SHA3_0 2)))
 (let ((?x154 (sc_s 1)))
 (let ((?x7592 (bvadd (_ bv62 6) ?x154)))
 (let ((?x4553 (stack_s x_0 x_1 x_2 x_3 x_SHA3_0 1 ?x7592)))
 (let ((?x8487 (bvadd (_ bv63 6) ?x154)))
 (let ((?x7308 (stack_s x_0 x_1 x_2 x_3 x_SHA3_0 1 ?x8487)))
 (let (($x6452 (forall ((w (_ BitVec 256)) )(let ((?x4974 (storage_s x_0 x_1 x_2 x_3 x_SHA3_0 0 w)))
 (let ((?x9226 (storage_s x_0 x_1 x_2 x_3 x_SHA3_0 1 w)))
 (= ?x9226 ?x4974))))
 ))
 (let (($x2121 (forall ((n (_ BitVec 6)) )(let ((?x3727 (stack_s x_0 x_1 x_2 x_3 x_SHA3_0 0 n)))
 (let ((?x1399 (stack_s x_0 x_1 x_2 x_3 x_SHA3_0 1 n)))
 (or (= ?x1399 ?x3727) (bvsle (bvadd (_ bv60 6) (sc_s 0)) n)))))
 ))
 (let (($x4339 (= (stack_s x_0 x_1 x_2 x_3 x_SHA3_0 1 (bvadd (_ bv61 6) ?x154)) (stack_s x_0 x_1 x_2 x_3 x_SHA3_0 0 (bvadd (_ bv61 6) ?x72)))))
 (let (($x5164 (= (stack_s x_0 x_1 x_2 x_3 x_SHA3_0 1 (bvadd (_ bv60 6) ?x154)) (stack_s x_0 x_1 x_2 x_3 x_SHA3_0 0 (bvadd (_ bv63 6) ?x72)))))
 (let (($x4852 (forall ((w0 (_ BitVec 256)) (w1 (_ BitVec 256)) )(let (($x1237 (= (stack_s x_0 x_1 x_2 x_3 x_SHA3_0 1 (bvadd (_ bv62 6) (sc_s 1))) w1)))
 (let (($x6223 (= (stack_s x_0 x_1 x_2 x_3 x_SHA3_0 1 (bvadd (_ bv63 6) (sc_s 1))) w0)))
 (let ((?x479 (f_SHA3 x_0 x_1 x_2 x_3 x_SHA3_0 w0 w1)))
 (= ?x479 (ite (and $x6223 $x1237) x_SHA3_0 (_ bv0 256)))))))
 ))
 (let (($x10649 (forall ((w (_ BitVec 256)) )(let ((?x4974 (storage_s x_0 x_1 x_2 x_3 x_SHA3_0 0 w)))
 (= ?x4974 (_ bv0 256))))
 ))
 (let (($x2296 (= ?x3793 0)))
 (let (($x5162 (= (stack_s x_0 x_1 x_2 x_3 x_SHA3_0 0 (_ bv3 6)) x_3)))
 (let (($x8467 (= (stack_s x_0 x_1 x_2 x_3 x_SHA3_0 0 (_ bv2 6)) x_2)))
 (let (($x2479 (= (stack_s x_0 x_1 x_2 x_3 x_SHA3_0 0 (_ bv1 6)) x_1)))
 (let (($x2432 (= (stack_s x_0 x_1 x_2 x_3 x_SHA3_0 0 (_ bv0 6)) x_0)))
 (let (($x289 (= ?x72 (_ bv4 6))))
 (and $x289 $x2432 $x2479 $x8467 $x5162 (not $x57) $x2296 $x10649 $x4852 (= ?x7308 (stack_s x_0 x_1 x_2 x_3 x_SHA3_0 0 (bvadd (_ bv60 6) ?x72))) $x5164 $x4339 (= ?x4553 (stack_s x_0 x_1 x_2 x_3 x_SHA3_0 0 (bvadd (_ bv62 6) ?x72))) (= (used_gas_s x_0 x_1 x_2 x_3 x_SHA3_0 1) (+ 3 ?x3793)) (= ?x154 ?x72) $x2121 $x6452 (= (exc_halt_s 1) (or $x57 (not (bvsle (_ bv0 6) (bvadd (_ bv60 6) ?x72))))) (= ?x2395 (f_SHA3 x_0 x_1 x_2 x_3 x_SHA3_0 ?x7308 ?x4553)) (= ?x1697 (+ 30 (used_gas_s x_0 x_1 x_2 x_3 x_SHA3_0 1))) (= (sc_s 2) ?x8487) $x1427 $x9989 $x6737 $x8958 (= (stack_s x_0 x_1 x_2 x_3 x_SHA3_0 3 (bvadd (_ bv61 6) ?x275)) ?x2395) $x10035 (= ?x4400 (+ 3 ?x1697)) (= ?x275 (sc_s 2)) $x4075 $x9311 $x1524 (= ?x1568 ?x6780) (= ?x4792 ?x3335) (= ?x2942 (+ 3 ?x4400)) (= (sc_s 4) ?x275) $x994 $x2922 $x7653 $x7219 (= (stack_s x_0 x_1 x_2 x_3 x_SHA3_0 5 (bvadd (_ bv61 6) ?x4319)) ?x1568) (= (stack_s x_0 x_1 x_2 x_3 x_SHA3_0 5 (bvadd (_ bv62 6) ?x4319)) ?x4792) $x4196 (= ?x4319 (sc_s 4)) $x5264 $x1113 $x5254 (= ?x8601 (stack_t x_0 x_1 x_2 x_3 x_SHA3_0 0 (bvadd (_ bv61 6) ?x63))) (= ?x7505 (stack_t x_0 x_1 x_2 x_3 x_SHA3_0 0 (bvadd (_ bv63 6) ?x63))) (= ?x8449 (stack_t x_0 x_1 x_2 x_3 x_SHA3_0 0 (bvadd (_ bv62 6) ?x63))) (= (used_gas_t x_0 x_1 x_2 x_3 x_SHA3_0 1) (+ 3 ?x5518)) (= (sc_t 1) ?x63) $x5957 $x3482 (= (exc_halt_t 1) (or $x56 (not (bvsle (_ bv0 6) (bvadd (_ bv61 6) ?x63))))) $x9813 (= (stack_t x_0 x_1 x_2 x_3 x_SHA3_0 2 (bvadd (_ bv60 6) ?x2714)) ?x8601) (= (stack_t x_0 x_1 x_2 x_3 x_SHA3_0 2 (bvadd (_ bv61 6) ?x2714)) ?x7505) (= ?x9396 ?x8449) (= ?x4493 (+ 3 (used_gas_t x_0 x_1 x_2 x_3 x_SHA3_0 1))) (= ?x2714 (sc_t 1)) $x10503 $x4009 $x9681 $x8760 $x3792 (= ?x6438 ?x9423) $x8282 $x5867 $x10012 $x73 $x8277 $x58 $x1366 $x1439 (not (and $x7281 $x9833 $x11613 $x8717))))))))))))))))))))))))))))))))))))))))))))))))))))))))))))))))))))))))))))))))))))))))))
 )
(check-sat)
(get-proof)
